GLPSOL: GLPK LP/MIP Solver, v4.57
Parameter(s) specified in the command line:
 -m shortest_paths_with_parity.mod -d data/data_100_99.dat -o outputs/output_100_99.txt
Reading model section from shortest_paths_with_parity.mod...
43 lines were read
Reading data section from data/data_100_99.dat...
data/data_100_99.dat:2448: warning: final NL missing before end of file
2448 lines were read
Generating obj...
Generating cons1O1...
Generating cons1O2...
Generating cons1NotOD...
Generating cons1D1...
Generating cons1D2...
Generating cons2O1...
Generating cons2O2...
Generating cons2NotOD...
Generating cons2D1...
Generating cons2D2...
Generating umradio...
Generating paridade...
Generating Sim...
Model has been successfully generated
GLPK Integer Optimizer, v4.57
2677 rows, 4882 columns, 29234 non-zeros
4882 integer variables, all of which are binary
Preprocessing...
230 rows, 4782 columns, 19070 non-zeros
4782 integer variables, all of which are binary
Scaling...
 A: min|aij| =  1.000e+00  max|aij| =  1.000e+00  ratio =  1.000e+00
Problem data seem to be well scaled
Constructing initial basis...
Size of triangular part is 228
Solving LP relaxation...
GLPK Simplex Optimizer, v4.57
230 rows, 4782 columns, 19070 non-zeros
*     0: obj =   1.800000000e+01 inf =   0.000e+00 (1846)
*   305: obj =   1.800000000e+01 inf =   0.000e+00 (0) 1
OPTIMAL LP SOLUTION FOUND
Integer optimization begins...
+   305: mip =     not found yet >=              -inf        (1; 0)
+   305: >>>>>   1.800000000e+01 >=   1.800000000e+01   0.0% (1; 0)
+   305: mip =   1.800000000e+01 >=     tree is empty   0.0% (0; 1)
INTEGER OPTIMAL SOLUTION FOUND
Time used:   0.0 secs
Memory used: 12.2 Mb (12754131 bytes)
Writing MIP solution to 'outputs/output_100_99.txt'...
